
GUB cover cuts applied:  4
Clique cuts applied:  4
Cover cuts applied:  13
Implied bound cuts applied:  18
Flow cuts applied:  1
Mixed integer rounding cuts applied:  22
Zero-half cuts applied:  46
Multi commodity flow cuts applied:  3

Root node processing (before b&c):
  Real time             =    0.17 sec. (100.89 ticks)
Parallel b&c, 4 threads:
  Real time             =    0.00 sec. (0.00 ticks)
  Sync time (average)   =    0.00 sec.
  Wait time (average)   =    0.00 sec.
                          ------------
Total (root+branch&cut) =    0.17 sec. (100.89 ticks)
Version identifier: 12.10.0.0 | 2019-11-26 | 843d4de
CPXPARAM_MIP_Interval                            10
CPXPARAM_MIP_Tolerances_AbsMIPGap                0.98999999999999999
Tried aggregator 2 times.
MIP Presolve eliminated 3176 rows and 1520 columns.
MIP Presolve added 4 rows and 0 columns.
MIP Presolve modified 132 coefficients.
Aggregator did 11 substitutions.
Reduced MIP has 1531 rows, 188 columns, and 3342 nonzeros.
Reduced MIP has 149 binaries, 39 generals, 0 SOSs, and 0 indicators.
Presolve time = 0.01 sec. (5.41 ticks)
Found incumbent of value 4.000000 after 0.01 sec. (8.76 ticks)
Probing fixed 0 vars, tightened 6 bounds.
Probing time = 0.00 sec. (0.66 ticks)
Cover probing fixed 0 vars, tightened 28 bounds.
Tried aggregator 1 time.
Detecting symmetries...
MIP Presolve eliminated 1180 rows and 0 columns.
MIP Presolve modified 20 coefficients.
Reduced MIP has 351 rows, 188 columns, and 982 nonzeros.
Reduced MIP has 149 binaries, 39 generals, 0 SOSs, and 0 indicators.
Presolve time = 0.00 sec. (1.29 ticks)
Probing fixed 0 vars, tightened 5 bounds.
Probing time = 0.00 sec. (0.21 ticks)
Cover probing fixed 0 vars, tightened 26 bounds.
Clique table members: 243.
MIP emphasis: balance optimality and feasibility.
MIP search method: dynamic search.
Parallel mode: deterministic, using up to 4 threads.
Root relaxation solution time = 0.00 sec. (1.95 ticks)

        Nodes                                         Cuts/
   Node  Left     Objective  IInf  Best Integer    Best Bound    ItCnt     Gap

*     0+    0                            4.0000       40.0000           900.00%
*     0+    0                           20.0000       40.0000           100.00%
      0     0       25.4167    70       20.0000       25.4167      190   27.08%
      0     0       25.3958    70       20.0000      Cuts: 50      314   26.98%
      0     0       25.3139    70       20.0000      Cuts: 88      371   26.57%
      0     0       25.2854    70       20.0000      Cuts: 65      429   26.43%
      0     0       25.2726    70       20.0000      Cuts: 34      461   26.36%
      0     0       25.2434    70       20.0000      Cuts: 31      513   26.22%
Detecting symmetries...
      0     0       25.1847    70       20.0000      Cuts: 38      563   25.92%
      0     0       25.1824    70       20.0000      Cuts: 35      600   25.91%
      0     0       25.1667    70       20.0000      Cuts: 32      637   25.83%
      0     0       25.1667    70       20.0000      Cuts: 15      678   25.83%
      0     0       25.1626    70       20.0000      Cuts: 51      737   25.81%
      0     0       25.1553    70       20.0000      Cuts: 31      770   25.78%
      0     0       25.1533    70       20.0000      Cuts: 27      801   25.77%
      0     0       25.1350    70       20.0000      Cuts: 25      839   25.67%
      0     0       25.1228    70       20.0000      Cuts: 38      878   25.61%
*     0+    0                           22.0000       25.1228            14.19%
      0     0       25.1207    70       22.0000      Cuts: 41      896   13.89%
Detecting symmetries...
      0     2       25.1207   150       22.0000       25.0556      896   13.89%
Elapsed time = 0.21 sec. (118.17 ticks, tree = 0.02 MB, solutions = 3)
     10     5       24.6517   123       22.0000       25.0556     1120   13.89%
     20    11       24.6407   112       22.0000       25.0556     1407   13.89%
     30    21       23.7619    99       22.0000       25.0556     1894   13.89%
     40    29       23.3333   109       22.0000       25.0556     2343   13.89%
     50    42        cutoff             22.0000       25.0556     3157   13.89%
     60    42       24.6667   103       22.0000       25.0556     3191   13.89%
     70    44       24.3382   120       22.0000       25.0556     3289   13.89%
     80    47       23.0000    48       22.0000       25.0556     3335   13.89%
     90    55       23.4444    55       22.0000       25.0556     3689   13.89%
    100    66       23.8792   108       22.0000       25.0556     4335   13.89%
Elapsed time = 0.24 sec. (142.97 ticks, tree = 0.03 MB, solutions = 3)
    110    73       23.6087    82       22.0000       25.0256     4656   13.75%
    120    64       24.5278   109       22.0000       25.0056     4158   13.66%
    130    95       23.0000    21       22.0000       25.0000     5756   13.64%
    140    89       23.9884    42       22.0000       25.0000     5560   13.64%
*   146+   86                           23.0000       25.0000             8.70%
    150    82       24.4259   113       23.0000       25.0000     5434    8.70%
    160    51       24.2333    86       23.0000       25.0000     6809    8.70%
    170    55       24.9400   108       23.0000       24.9400     6672    8.43%
    180    66       24.0000   103       23.0000       24.9400     6237    8.43%
    190    59       24.4286    93       23.0000       24.9400     6876    8.43%
    200    56       24.6404   139       23.0000       24.9322     7732    8.40%
Elapsed time = 0.25 sec. (162.65 ticks, tree = 0.03 MB, solutions = 4)
    210    61        cutoff             23.0000       24.9113     8319    8.31%
    220    67        cutoff             23.0000       24.9113     8738    8.31%
    230    54       24.4815   109       23.0000       24.9113     7624    8.31%
    240    70       24.2188    62       23.0000       24.9113     8944    8.31%
    250    66       24.2727    70       23.0000       24.9113     8628    8.31%
    260    66       24.0278    86       23.0000       24.9001     9326    8.26%
    270    69       24.5864    89       23.0000       24.8281     9630    7.95%
    280    63        cutoff             23.0000       24.8281     9466    7.95%
    290    76       24.2560    77       23.0000       24.8281    10626    7.95%
    300    69       24.0683    95       23.0000       24.8281     9929    7.95%
Elapsed time = 0.27 sec. (182.72 ticks, tree = 0.03 MB, solutions = 4)
    310    76       24.3472    98       23.0000       24.7000    10744    7.39%
    320    81        cutoff             23.0000       24.6364    12098    7.11%
    330    76       24.2222   110       23.0000       24.6364    11262    7.11%
    340    84       24.3864   118       23.0000       24.6111    12681    7.00%
    350    76       24.0625    84       23.0000       24.6111    12035    7.00%
    360    74       24.4091    98       23.0000       24.6111    12094    7.00%
    370    83       24.0897    73       23.0000       24.6042    12934    6.97%
    380    79        cutoff             23.0000       24.6042    12565    6.97%
    390    84       24.2583    94       23.0000       24.5667    13276    6.81%
    400    77        cutoff             23.0000       24.5484    14384    6.73%
Elapsed time = 0.30 sec. (204.34 ticks, tree = 0.03 MB, solutions = 4)
    410    75        cutoff             23.0000       24.5328    14857    6.66%
    420    78        cutoff             23.0000       24.5328    13970    6.66%
    430    79       24.1071   102       23.0000       24.5328    14074    6.66%
    440    65       24.1928   119       23.0000       24.5045    15866    6.54%
    450    62        cutoff             23.0000       24.5045    15920    6.54%
    460    73       24.1667    86       23.0000       24.5045    15227    6.54%
    470    79       24.0526    96       23.0000       24.5045    14993    6.54%
    480    55        cutoff             23.0000       24.5045    16114    6.54%
    490    45       24.0000    61       23.0000       24.4817    17309    6.44%
    500    51        cutoff             23.0000       24.4817    16415    6.44%
Elapsed time = 0.32 sec. (223.97 ticks, tree = 0.02 MB, solutions = 4)
    510    68        cutoff             23.0000       24.4817    15425    6.44%
    520    29        cutoff             23.0000       24.2802    18034    5.57%
    530    42        cutoff             23.0000       24.2652    17549    5.50%
    540    34       24.0000    49       23.0000       24.2652    17964    5.50%
    550    22       24.0268   102       23.0000       24.1538    18382    5.02%
the number of Nodes = 555
